2
4
40
1 1.3 1.55 1.75 2.1
43 41 20 31 34 11 43 33 15 48 42 35 13 23 45 16 38 44 30 22 23 14 8 20 49 36 15 11 6 37 17 45 28 19 24 11 12 16 19 38 30 39 19 21 29 37 11 23 14 30 32 28 40 24 36 41 23 8 48 32 35 33 14 27 8 48 11 37 17 26 13 41 13 27 46 37 19 5 43 33 16 16 8 27 17 33 26 16 32 23 33 39 45 44 15 5 31 24 26 23 44 34 24 10 48 34 15 31 45 8 9 33 6 38 36 26 24 10 39 33 43 21 21 21 28 46 19 13 44 40 20 29 46 28 9 32 32 23 16 29 22 9 7 12 46 38 21 28 29 15 34 43 22 12 16 22 42 26 26 45 